language Essence 1.3

letting course_load be
        function(1 --> 3, 2 --> 16, 3 --> 1, 4 --> 19, 5 --> 6, 6 --> 4, 7 --> 4, 8 --> 12, 9 --> 14, 10 --> 17,
                 11 --> 12, 12 --> 19, 13 --> 2, 14 --> 6, 15 --> 15, 16 --> 16, 17 --> 5, 18 --> 5, 19 --> 14,
                 20 --> 4, 21 --> 9, 22 --> 14, 23 --> 15, 24 --> 18, 25 --> 1, 26 --> 8, 27 --> 19, 28 --> 19,
                 29 --> 4, 30 --> 7, 31 --> 16, 32 --> 17, 33 --> 7, 34 --> 18, 35 --> 13, 36 --> 6, 37 --> 8, 38 --> 4,
                 39 --> 10, 40 --> 14, 41 --> 12, 42 --> 13, 43 --> 6, 44 --> 6)
letting courses_per_period_lb be 1
letting courses_per_period_ub be 11
letting load_per_period_lb be 7
letting load_per_period_ub be 44
letting n_courses be 44
letting n_periods be 23
letting prerequisite be
        relation((1, 18), (1, 21), (1, 22), (2, 19), (2, 20), (2, 23), (2, 25), (3, 16), (3, 21), (3, 22), (3, 23),
                 (3, 26), (4, 16), (4, 17), (4, 18), (4, 20), (4, 24), (5, 16), (5, 18), (5, 19), (5, 20), (5, 23),
                 (5, 26), (6, 19), (6, 20), (6, 21), (6, 22), (6, 23), (6, 24), (6, 25), (7, 17), (7, 18), (7, 19),
                 (7, 20), (7, 26), (8, 16), (8, 19), (8, 20), (8, 21), (8, 22), (8, 23), (8, 24), (8, 26), (9, 19),
                 (9, 20), (9, 22), (9, 24), (9, 26), (10, 16), (10, 17), (10, 19), (10, 21), (10, 22), (10, 24),
                 (11, 16), (11, 17), (11, 20), (11, 21), (11, 25), (11, 26), (12, 17), (12, 20), (12, 21), (12, 24),
                 (12, 26), (13, 19), (13, 21), (14, 16), (14, 18), (14, 20), (14, 21), (14, 23))
$ Visualisation for prerequisite
$  1 18
$  1 21
$  1 22
$  2 19
$  2 20
$  2 23
$  2 25
$  3 16
$  3 21
$  3 22
$  3 23
$  3 26
$  4 16
$  4 17
$  4 18
$  4 20
$  4 24
$  5 16
$  5 18
$  5 19
$  5 20
$  5 23
$  5 26
$  6 19
$  6 20
$  6 21
$  6 22
$  6 23
$  6 24
$  6 25
$  7 17
$  7 18
$  7 19
$  7 20
$  7 26
$  8 16
$  8 19
$  8 20
$  8 21
$  8 22
$  8 23
$  8 24
$  8 26
$  9 19
$  9 20
$  9 22
$  9 24
$  9 26
$ 10 16
$ 10 17
$ 10 19
$ 10 21
$ 10 22
$ 10 24
$ 11 16
$ 11 17
$ 11 20
$ 11 21
$ 11 25
$ 11 26
$ 12 17
$ 12 20
$ 12 21
$ 12 24
$ 12 26
$ 13 19
$ 13 21
$ 14 16
$ 14 18
$ 14 20
$ 14 21
$ 14 23

